
        $ From http://www.csplib.org/Problems/prob009/data/helmut.pdf
        $ Problem number 98
        $ Sequence length : 25
        language ESSENCE' 1.0
        letting sizemaster be 338
        letting sizes be sequence(1,4,8,10,12,16,19,22,24,25,28,36,37,38,39,46,53,68,70,73,94,96,101,164,174)
        